Maximize
F - f1 - f2

Subject to
F - 0y10 - 0y112 - 2y165 - 6y38 - 8y101 - 4y65 - 4y19 - 2y103 - 6y28 - 6y129 - 6y88 - 6y178 - 6y76 - 8y173 - 8y132 - 8y115 = 0
f1 - 0.008355s10 - 0.008355s112 - 0.008355s165 - 0.008355s38 - 0.008355s101 - 0.008355s65 - 0.008355s19 - 0.008355s103 - 0.008355s28 - 0.008355s129 - 0.008355s88 - 0.008355s178 - 0.008355s76 - 0.008355s173 - 0.008355s132 - 0.008355s115  = 0
f2 - 3.60y10 - 4.04y112 - 2.94y165 - 2.12y38 - 2.21y101 - 3.10y65 - 2.31y19 - 1.68y103 - 1.28y28 - 1.26y129 - 1.52y88 - 2.41y178 - 0.91y76 - 1.04y173 - 0.96y132 - 0.86y115 = 0

x86x10x1 + x86x65x1 + x86x19x1 + x86x103x1 + x86x28x1 + x86x129x1 + x86x88x1 + x86x178x1 + x86x173x1 + x86x132x1 
<= 1
x126x65x1 + x126x19x1 + x126x103x1 + x126x28x1 + x126x129x1 + x126x88x1 + x126x178x1 + x126x173x1 + x126x132x1 
<= 1
x41x10x1 + x41x65x1 + x41x19x1 + x41x103x1 + x41x28x1 + x41x129x1 + x41x88x1 + x41x178x1 + x41x173x1 + x41x132x1 
<= 2
x9x10x1 + x9x65x1 + x9x19x1 + x9x103x1 + x9x28x1 + x9x129x1 + x9x88x1 + x9x178x1 + x9x173x1 + x9x132x1 
<= 1
x97x65x1 + x97x19x1 + x97x103x1 + x97x28x1 + x97x129x1 + x97x88x1 + x97x178x1 + x97x173x1 + x97x132x1 
<= 1
x1x19x1 + x1x103x1 + x1x28x1 + x1x129x1 + x1x88x1 + x1x178x1 + x1x173x1 + x1x132x1 
<= 1
x10x65x1 + x10x19x1 + x10x103x1 + x10x28x1 + x10x129x1 + x10x88x1 + x10x178x1 + x10x173x1 + x10x132x1 
<= 1
x86x10x2 + x86x165x2 + x86x38x2 + x86x101x2 + x86x65x2 + x86x19x2 + x86x129x2 + x86x88x2 + x86x76x2 + x86x132x2 + x86x115x2 
<= 1
x107x165x2 + x107x38x2 + x107x101x2 + x107x65x2 + x107x19x2 + x107x129x2 + x107x88x2 + x107x76x2 + x107x132x2 + x107x115x2 
<= 1
x126x38x2 + x126x101x2 + x126x65x2 + x126x19x2 + x126x129x2 + x126x88x2 + x126x76x2 + x126x132x2 + x126x115x2 
<= 1
x149x165x2 + x149x38x2 + x149x101x2 + x149x65x2 + x149x19x2 + x149x129x2 + x149x88x2 + x149x76x2 + x149x132x2 + x149x115x2 
<= 1
x97x165x2 + x97x38x2 + x97x101x2 + x97x65x2 + x97x19x2 + x97x129x2 + x97x88x2 + x97x76x2 + x97x132x2 + x97x115x2 
<= 1
x1x38x2 + x1x101x2 + x1x19x2 + x1x129x2 + x1x88x2 + x1x76x2 + x1x132x2 + x1x115x2 
<= 1
x112x165x2 + x112x38x2 + x112x101x2 + x112x65x2 + x112x19x2 + x112x129x2 + x112x88x2 + x112x76x2 + x112x132x2 + x112x115x2 
<= 1
x10x38x2 + x10x101x2 + x10x65x2 + x10x19x2 + x10x129x2 + x10x88x2 + x10x76x2 + x10x132x2 + x10x115x2 
<= 1
x107x101x3 + x107x28x3 + x107x178x3 + x107x173x3 
<= 1
x9x112x3 + x9x101x3 + x9x28x3 + x9x178x3 + x9x173x3 
<= 1
x149x101x3 + x149x28x3 + x149x178x3 + x149x173x3 
<= 1
x112x101x3 + x112x28x3 + x112x178x3 + x112x173x3 
<= 1
x158x112x3 + x158x101x3 + x158x28x3 + x158x178x3 + x158x173x3 
<= 1
x6x112x3 + x6x101x3 + x6x28x3 + x6x178x3 + x6x173x3 
<= 1
x56x112x3 + x56x101x3 + x56x28x3 + x56x178x3 + x56x173x3 
<= 2

x86x10x1 + x41x10x1 + x9x10x1 
- x10x0x1
- x10x65x1 - x10x19x1 - x10x103x1 - x10x28x1 - x10x129x1 - x10x88x1 - x10x178x1 - x10x173x1 - x10x132x1 
= 0
x86x10x2 
- x10x0x2
- x10x65x2 - x10x19x2 - x10x129x2 - x10x88x2 - x10x76x2 - x10x132x2 - x10x115x2 
= 0




- x112x65x2 - x112x19x2 - x112x129x2 - x112x88x2 - x112x76x2 - x112x132x2 - x112x115x2 
= 0
x9x112x3 + x158x112x3 + x6x112x3 + x56x112x3 
- x112x0x3
- x112x28x3 - x112x178x3 - x112x173x3 
= 0


x86x165x2 + x107x165x2 + x149x165x2 + x97x165x2 + x112x165x2 
- x165x0x2
- x165x38x2 - x165x101x2 - x165x19x2 - x165x129x2 - x165x88x2 - x165x76x2 - x165x132x2 - x165x115x2 
= 0



x86x38x2 + x107x38x2 + x126x38x2 + x149x38x2 + x97x38x2 + x1x38x2 + x112x38x2 + x10x38x2 + x165x38x2 
- x38x0x2
- x38x129x2 - x38x88x2 - x38x76x2 - x38x132x2 - x38x115x2 
= 0



x86x101x2 + x107x101x2 + x126x101x2 + x149x101x2 + x97x101x2 + x1x101x2 + x112x101x2 + x10x101x2 + x165x101x2 
- x101x0x2
- x101x129x2 - x101x88x2 - x101x76x2 - x101x132x2 - x101x115x2 
= 0
x107x101x3 + x9x101x3 + x149x101x3 + x112x101x3 + x158x101x3 + x6x101x3 + x56x101x3 
- x101x0x3
- x101x28x3 - x101x178x3 - x101x173x3 
= 0

x86x65x1 + x126x65x1 + x41x65x1 + x9x65x1 + x97x65x1 + x10x65x1 + x10x65x1 
- x65x0x1
- x65x28x1 - x65x129x1 - x65x88x1 - x65x178x1 - x65x173x1 - x65x132x1 
= 0
x86x65x2 + x107x65x2 + x126x65x2 + x149x65x2 + x97x65x2 + x112x65x2 + x10x65x2 + x10x65x2 + x112x65x2 
- x65x0x2
- x65x129x2 - x65x88x2 - x65x76x2 - x65x132x2 - x65x115x2 
= 0


x86x19x1 + x126x19x1 + x41x19x1 + x9x19x1 + x97x19x1 + x1x19x1 + x10x19x1 + x10x19x1 
- x19x0x1
- x19x28x1 - x19x129x1 - x19x88x1 - x19x178x1 - x19x173x1 - x19x132x1 
= 0
x86x19x2 + x107x19x2 + x126x19x2 + x149x19x2 + x97x19x2 + x1x19x2 + x112x19x2 + x10x19x2 + x10x19x2 + x112x19x2 + x165x19x2 
- x19x0x2
- x19x129x2 - x19x88x2 - x19x76x2 - x19x132x2 - x19x115x2 
= 0


x86x103x1 + x126x103x1 + x41x103x1 + x9x103x1 + x97x103x1 + x1x103x1 + x10x103x1 + x10x103x1 
- x103x0x1
- x103x28x1 - x103x129x1 - x103x88x1 - x103x178x1 - x103x173x1 - x103x132x1 
= 0



x86x28x1 + x126x28x1 + x41x28x1 + x9x28x1 + x97x28x1 + x1x28x1 + x10x28x1 + x10x28x1 + x65x28x1 + x19x28x1 + x103x28x1 
- x28x0x1
- x28x173x1 - x28x132x1 
= 0

x107x28x3 + x9x28x3 + x149x28x3 + x112x28x3 + x158x28x3 + x6x28x3 + x56x28x3 + x112x28x3 + x101x28x3 
- x28x0x3
- x28x173x3 
= 0

x86x129x1 + x126x129x1 + x41x129x1 + x9x129x1 + x97x129x1 + x1x129x1 + x10x129x1 + x10x129x1 + x65x129x1 + x19x129x1 + x103x129x1 
- x129x0x1
- x129x173x1 - x129x132x1 
= 0
x86x129x2 + x107x129x2 + x126x129x2 + x149x129x2 + x97x129x2 + x1x129x2 + x112x129x2 + x10x129x2 + x10x129x2 + x112x129x2 + x165x129x2 + x38x129x2 + x101x129x2 + x65x129x2 + x19x129x2 
- x129x0x2
- x129x76x2 - x129x132x2 - x129x115x2 
= 0


x86x88x1 + x126x88x1 + x41x88x1 + x9x88x1 + x97x88x1 + x1x88x1 + x10x88x1 + x10x88x1 + x65x88x1 + x19x88x1 + x103x88x1 
- x88x0x1
- x88x132x1 
= 0
x86x88x2 + x107x88x2 + x126x88x2 + x149x88x2 + x97x88x2 + x1x88x2 + x112x88x2 + x10x88x2 + x10x88x2 + x112x88x2 + x165x88x2 + x38x88x2 + x101x88x2 + x65x88x2 + x19x88x2 
- x88x0x2
- x88x76x2 - x88x132x2 - x88x115x2 
= 0


x86x178x1 + x126x178x1 + x41x178x1 + x9x178x1 + x97x178x1 + x1x178x1 + x10x178x1 + x10x178x1 + x65x178x1 + x19x178x1 + x103x178x1 
- x178x0x1

= 0

x107x178x3 + x9x178x3 + x149x178x3 + x112x178x3 + x158x178x3 + x6x178x3 + x56x178x3 + x112x178x3 + x101x178x3 
- x178x0x3

= 0


x86x76x2 + x107x76x2 + x126x76x2 + x149x76x2 + x97x76x2 + x1x76x2 + x112x76x2 + x10x76x2 + x10x76x2 + x112x76x2 + x165x76x2 + x38x76x2 + x101x76x2 + x65x76x2 + x19x76x2 + x129x76x2 + x88x76x2 
- x76x0x2

= 0


x86x173x1 + x126x173x1 + x41x173x1 + x9x173x1 + x97x173x1 + x1x173x1 + x10x173x1 + x10x173x1 + x65x173x1 + x19x173x1 + x103x173x1 + x28x173x1 + x129x173x1 
- x173x0x1
- x173x132x1 
= 0

x107x173x3 + x9x173x3 + x149x173x3 + x112x173x3 + x158x173x3 + x6x173x3 + x56x173x3 + x112x173x3 + x101x173x3 + x28x173x3 
- x173x0x3

= 0

x86x132x1 + x126x132x1 + x41x132x1 + x9x132x1 + x97x132x1 + x1x132x1 + x10x132x1 + x10x132x1 + x65x132x1 + x19x132x1 + x103x132x1 + x28x132x1 + x129x132x1 + x88x132x1 + x173x132x1 
- x132x0x1

= 0
x86x132x2 + x107x132x2 + x126x132x2 + x149x132x2 + x97x132x2 + x1x132x2 + x112x132x2 + x10x132x2 + x10x132x2 + x112x132x2 + x165x132x2 + x38x132x2 + x101x132x2 + x65x132x2 + x19x132x2 + x129x132x2 + x88x132x2 
- x132x0x2
- x132x115x2 
= 0



x86x115x2 + x107x115x2 + x126x115x2 + x149x115x2 + x97x115x2 + x1x115x2 + x112x115x2 + x10x115x2 + x10x115x2 + x112x115x2 + x165x115x2 + x38x115x2 + x101x115x2 + x65x115x2 + x19x115x2 + x129x115x2 + x88x115x2 + x132x115x2 
- x115x0x2

= 0


1y10 - x86x10x1 - x41x10x1 - x9x10x1 = 0
1y10 - x86x10x2 = 0
1y112 = 0
1y112 - x9x112x3 - x158x112x3 - x6x112x3 - x56x112x3 = 0
2y165 - x86x165x2 - x107x165x2 - x149x165x2 - x97x165x2 - x112x165x2 = 0
2y38 - x86x38x2 - x107x38x2 - x126x38x2 - x149x38x2 - x97x38x2 - x1x38x2 - x112x38x2 - x10x38x2 - x165x38x2 = 0
1y101 - x86x101x2 - x107x101x2 - x126x101x2 - x149x101x2 - x97x101x2 - x1x101x2 - x112x101x2 - x10x101x2 - x165x101x2 = 0
1y101 - x107x101x3 - x9x101x3 - x149x101x3 - x112x101x3 - x158x101x3 - x6x101x3 - x56x101x3 = 0
1y65 - x86x65x1 - x126x65x1 - x41x65x1 - x9x65x1 - x97x65x1 - x10x65x1 - x10x65x1 = 0
1y65 - x86x65x2 - x107x65x2 - x126x65x2 - x149x65x2 - x97x65x2 - x112x65x2 - x10x65x2 - x10x65x2 - x112x65x2 = 0
1y19 - x86x19x1 - x126x19x1 - x41x19x1 - x9x19x1 - x97x19x1 - x1x19x1 - x10x19x1 - x10x19x1 = 0
1y19 - x86x19x2 - x107x19x2 - x126x19x2 - x149x19x2 - x97x19x2 - x1x19x2 - x112x19x2 - x10x19x2 - x10x19x2 - x112x19x2 - x165x19x2 = 0
2y103 - x86x103x1 - x126x103x1 - x41x103x1 - x9x103x1 - x97x103x1 - x1x103x1 - x10x103x1 - x10x103x1 = 0
1y28 - x86x28x1 - x126x28x1 - x41x28x1 - x9x28x1 - x97x28x1 - x1x28x1 - x10x28x1 - x10x28x1 - x65x28x1 - x19x28x1 - x103x28x1 = 0
1y28 - x107x28x3 - x9x28x3 - x149x28x3 - x112x28x3 - x158x28x3 - x6x28x3 - x56x28x3 - x112x28x3 - x101x28x3 = 0
1y129 - x86x129x1 - x126x129x1 - x41x129x1 - x9x129x1 - x97x129x1 - x1x129x1 - x10x129x1 - x10x129x1 - x65x129x1 - x19x129x1 - x103x129x1 = 0
1y129 - x86x129x2 - x107x129x2 - x126x129x2 - x149x129x2 - x97x129x2 - x1x129x2 - x112x129x2 - x10x129x2 - x10x129x2 - x112x129x2 - x165x129x2 - x38x129x2 - x101x129x2 - x65x129x2 - x19x129x2 = 0
1y88 - x86x88x1 - x126x88x1 - x41x88x1 - x9x88x1 - x97x88x1 - x1x88x1 - x10x88x1 - x10x88x1 - x65x88x1 - x19x88x1 - x103x88x1 = 0
1y88 - x86x88x2 - x107x88x2 - x126x88x2 - x149x88x2 - x97x88x2 - x1x88x2 - x112x88x2 - x10x88x2 - x10x88x2 - x112x88x2 - x165x88x2 - x38x88x2 - x101x88x2 - x65x88x2 - x19x88x2 = 0
1y178 - x86x178x1 - x126x178x1 - x41x178x1 - x9x178x1 - x97x178x1 - x1x178x1 - x10x178x1 - x10x178x1 - x65x178x1 - x19x178x1 - x103x178x1 = 0
1y178 - x107x178x3 - x9x178x3 - x149x178x3 - x112x178x3 - x158x178x3 - x6x178x3 - x56x178x3 - x112x178x3 - x101x178x3 = 0
2y76 - x86x76x2 - x107x76x2 - x126x76x2 - x149x76x2 - x97x76x2 - x1x76x2 - x112x76x2 - x10x76x2 - x10x76x2 - x112x76x2 - x165x76x2 - x38x76x2 - x101x76x2 - x65x76x2 - x19x76x2 - x129x76x2 - x88x76x2 = 0
1y173 - x86x173x1 - x126x173x1 - x41x173x1 - x9x173x1 - x97x173x1 - x1x173x1 - x10x173x1 - x10x173x1 - x65x173x1 - x19x173x1 - x103x173x1 - x28x173x1 - x129x173x1 = 0
1y173 - x107x173x3 - x9x173x3 - x149x173x3 - x112x173x3 - x158x173x3 - x6x173x3 - x56x173x3 - x112x173x3 - x101x173x3 - x28x173x3 = 0
1y132 - x86x132x1 - x126x132x1 - x41x132x1 - x9x132x1 - x97x132x1 - x1x132x1 - x10x132x1 - x10x132x1 - x65x132x1 - x19x132x1 - x103x132x1 - x28x132x1 - x129x132x1 - x88x132x1 - x173x132x1 = 0
1y132 - x86x132x2 - x107x132x2 - x126x132x2 - x149x132x2 - x97x132x2 - x1x132x2 - x112x132x2 - x10x132x2 - x10x132x2 - x112x132x2 - x165x132x2 - x38x132x2 - x101x132x2 - x65x132x2 - x19x132x2 - x129x132x2 - x88x132x2 = 0
2y115 - x86x115x2 - x107x115x2 - x126x115x2 - x149x115x2 - x97x115x2 - x1x115x2 - x112x115x2 - x10x115x2 - x10x115x2 - x112x115x2 - x165x115x2 - x38x115x2 - x101x115x2 - x65x115x2 - x19x115x2 - x129x115x2 - x88x115x2 - x132x115x2 = 0

s86 - s10 + 6.560104z86z10z1 <= 4.94
s86 - s10 + 6.560104z86z10z2 <= 4.94
s86 - s165 + 6.390019z86z165z2 <= 4.94
s86 - s38 + 6.431116z86z38z2 <= 4.94
s86 - s101 + 6.393204z86z101z2 <= 4.94
s86 - s65 + 6.653204z86z65z1 <= 4.94
s86 - s65 + 6.653204z86z65z2 <= 4.94
s86 - s19 + 6.628063z86z19z1 <= 4.94
s86 - s19 + 6.628063z86z19z2 <= 4.94
s86 - s103 + 6.527445z86z103z1 <= 4.94
s86 - s28 + 6.608256z86z28z1 <= 4.94
s86 - s129 + 6.484463z86z129z1 <= 4.94
s86 - s129 + 6.484463z86z129z2 <= 4.94
s86 - s88 + 6.685118z86z88z1 <= 4.94
s86 - s88 + 6.685118z86z88z2 <= 4.94
s86 - s178 + 6.720741z86z178z1 <= 4.94
s86 - s76 + 6.685238z86z76z2 <= 4.94
s86 - s173 + 6.454202z86z173z1 <= 4.94
s86 - s132 + 6.472971z86z132z1 <= 4.94
s86 - s132 + 6.472971z86z132z2 <= 4.94
s86 - s115 + 6.487298z86z115z2 <= 4.94
s107 - s165 + 6.619837z107z165z2 <= 5.32
s107 - s38 + 6.751722z107z38z2 <= 5.32
s107 - s101 + 6.728644z107z101z2 <= 5.32
s107 - s101 + 6.728644z107z101z3 <= 5.32
s107 - s65 + 6.721877z107z65z2 <= 5.32
s107 - s19 + 6.818291z107z19z2 <= 5.32
s107 - s28 + 6.949724z107z28z3 <= 5.32
s107 - s129 + 6.893763z107z129z2 <= 5.32
s107 - s88 + 6.962571z107z88z2 <= 5.32
s107 - s178 + 6.868030z107z178z3 <= 5.32
s107 - s76 + 7.041816z107z76z2 <= 5.32
s107 - s173 + 6.913755z107z173z3 <= 5.32
s107 - s132 + 6.930620z107z132z2 <= 5.32
s107 - s115 + 6.949688z107z115z2 <= 5.32
s126 - s38 + 6.898224z126z38z2 <= 5.65
s126 - s101 + 6.857833z126z101z2 <= 5.65
s126 - s65 + 7.114315z126z65z1 <= 5.65
s126 - s65 + 7.114315z126z65z2 <= 5.65
s126 - s19 + 7.093474z126z19z1 <= 5.65
s126 - s19 + 7.093474z126z19z2 <= 5.65
s126 - s103 + 7.006869z126z103z1 <= 5.65
s126 - s28 + 7.099428z126z28z1 <= 5.65
s126 - s129 + 6.981468z126z129z1 <= 5.65
s126 - s129 + 6.981468z126z129z2 <= 5.65
s126 - s88 + 7.167147z126z88z1 <= 5.65
s126 - s88 + 7.167147z126z88z2 <= 5.65
s126 - s178 + 7.185465z126z178z1 <= 5.65
s126 - s76 + 7.186665z126z76z2 <= 5.65
s126 - s173 + 6.964759z126z173z1 <= 5.65
s126 - s132 + 6.985714z126z132z1 <= 5.65
s126 - s132 + 6.985714z126z132z2 <= 5.65
s126 - s115 + 7.004004z126z115z2 <= 5.65
s41 - s10 + 6.304372z41z10z1 <= 5.00
s41 - s65 + 6.433585z41z65z1 <= 5.00
s41 - s19 + 6.466918z41z19z1 <= 5.00
s41 - s103 + 6.432558z41z103z1 <= 5.00
s41 - s28 + 6.535748z41z28z1 <= 5.00
s41 - s129 + 6.439746z41z129z1 <= 5.00
s41 - s88 + 6.581630z41z88z1 <= 5.00
s41 - s178 + 6.547812z41z178z1 <= 5.00
s41 - s173 + 6.441059z41z173z1 <= 5.00
s41 - s132 + 6.461458z41z132z1 <= 5.00
s9 - s10 + 6.367090z9z10z1 <= 5.15
s9 - s112 + 6.312546z9z112z3 <= 5.15
s9 - s101 + 6.513176z9z101z3 <= 5.15
s9 - s65 + 6.510689z9z65z1 <= 5.15
s9 - s19 + 6.603689z9z19z1 <= 5.15
s9 - s103 + 6.636692z9z103z1 <= 5.15
s9 - s28 + 6.733509z9z28z1 <= 5.15
s9 - s28 + 6.733509z9z28z3 <= 5.15
s9 - s129 + 6.677562z9z129z1 <= 5.15
s9 - s88 + 6.747293z9z88z1 <= 5.15
s9 - s178 + 6.655731z9z178z1 <= 5.15
s9 - s178 + 6.655731z9z178z3 <= 5.15
s9 - s173 + 6.697969z9z173z1 <= 5.15
s9 - s173 + 6.697969z9z173z3 <= 5.15
s9 - s132 + 6.714690z9z132z1 <= 5.15
s149 - s165 + 6.728827z149z165z2 <= 5.45
s149 - s38 + 6.854337z149z38z2 <= 5.45
s149 - s101 + 6.834861z149z101z2 <= 5.45
s149 - s101 + 6.834861z149z101z3 <= 5.45
s149 - s65 + 6.807628z149z65z2 <= 5.45
s149 - s19 + 6.907784z149z19z2 <= 5.45
s149 - s28 + 7.044459z149z28z3 <= 5.45
s149 - s129 + 6.995035z149z129z2 <= 5.45
s149 - s88 + 7.053375z149z88z2 <= 5.45
s149 - s178 + 6.954470z149z178z3 <= 5.45
s149 - s76 + 7.135315z149z76z2 <= 5.45
s149 - s173 + 7.017851z149z173z3 <= 5.45
s149 - s132 + 7.033840z149z132z2 <= 5.45
s149 - s115 + 7.052486z149z115z2 <= 5.45
s97 - s165 + 6.459559z97z165z2 <= 5.34
s97 - s38 + 6.544681z97z38z2 <= 5.34
s97 - s101 + 6.502156z97z101z2 <= 5.34
s97 - s65 + 6.727029z97z65z1 <= 5.34
s97 - s65 + 6.727029z97z65z2 <= 5.34
s97 - s19 + 6.726392z97z19z1 <= 5.34
s97 - s19 + 6.726392z97z19z2 <= 5.34
s97 - s103 + 6.665621z97z103z1 <= 5.34
s97 - s28 + 6.766504z97z28z1 <= 5.34
s97 - s129 + 6.661809z97z129z1 <= 5.34
s97 - s129 + 6.661809z97z129z2 <= 5.34
s97 - s88 + 6.822112z97z88z1 <= 5.34
s97 - s88 + 6.822112z97z88z2 <= 5.34
s97 - s178 + 6.815148z97z178z1 <= 5.34
s97 - s76 + 6.859615z97z76z2 <= 5.34
s97 - s173 + 6.659007z97z173z1 <= 5.34
s97 - s132 + 6.679715z97z132z1 <= 5.34
s97 - s132 + 6.679715z97z132z2 <= 5.34
s97 - s115 + 6.699533z97z115z2 <= 5.34
s1 - s38 + 7.070725z1z38z2 <= 5.75
s1 - s101 + 7.035993z1z101z2 <= 5.75
s1 - s19 + 7.267054z1z19z1 <= 5.75
s1 - s19 + 7.267054z1z19z2 <= 5.75
s1 - s103 + 7.160908z1z103z1 <= 5.75
s1 - s28 + 7.240688z1z28z1 <= 5.75
s1 - s129 + 7.116948z1z129z1 <= 5.75
s1 - s129 + 7.116948z1z129z2 <= 5.75
s1 - s88 + 7.317805z1z88z1 <= 5.75
s1 - s88 + 7.317805z1z88z2 <= 5.75
s1 - s178 + 7.359903z1z178z1 <= 5.75
s1 - s76 + 7.318585z1z76z2 <= 5.75
s1 - s173 + 7.087708z1z173z1 <= 5.75
s1 - s132 + 7.106929z1z132z1 <= 5.75
s1 - s132 + 7.106929z1z132z2 <= 5.75
s1 - s115 + 7.122035z1z115z2 <= 5.75
s112 - s165 + 6.752678z112z165z2 <= 5.54
s112 - s38 + 6.838727z112z38z2 <= 5.54
s112 - s101 + 6.833687z112z101z2 <= 5.54
s112 - s101 + 6.833687z112z101z3 <= 5.54
s112 - s65 + 6.741363z112z65z2 <= 5.54
s112 - s19 + 6.847764z112z19z2 <= 5.54
s112 - s28 + 6.996879z112z28z3 <= 5.54
s112 - s129 + 6.968411z112z129z2 <= 5.54
s112 - s88 + 6.995365z112z88z2 <= 5.54
s112 - s178 + 6.888627z112z178z3 <= 5.54
s112 - s76 + 7.083436z112z76z2 <= 5.54
s112 - s173 + 6.999599z112z173z3 <= 5.54
s112 - s132 + 7.012307z112z132z2 <= 5.54
s112 - s115 + 7.029116z112z115z2 <= 5.54
s10 - s38 + 6.888887z10z38z2 <= 5.65
s10 - s101 + 6.889733z10z101z2 <= 5.65
s10 - s65 + 6.799359z10z65z1 <= 5.65
s10 - s65 + 6.799359z10z65z2 <= 5.65
s10 - s19 + 6.893088z10z19z1 <= 5.65
s10 - s19 + 6.893088z10z19z2 <= 5.65
s10 - s103 + 6.954253z10z103z1 <= 5.65
s10 - s28 + 7.039490z10z28z1 <= 5.65
s10 - s129 + 7.013551z10z129z1 <= 5.65
s10 - s129 + 7.013551z10z129z2 <= 5.65
s10 - s88 + 7.039893z10z88z1 <= 5.65
s10 - s88 + 7.039893z10z88z2 <= 5.65
s10 - s178 + 6.941825z10z178z1 <= 5.65
s10 - s76 + 7.126470z10z76z2 <= 5.65
s10 - s173 + 7.046556z10z173z1 <= 5.65
s10 - s132 + 7.058349z10z132z1 <= 5.65
s10 - s132 + 7.058349z10z132z2 <= 5.65
s10 - s115 + 7.074633z10z115z2 <= 5.65
s158 - s112 + 5.610985z158z112z3 <= 3.98
s158 - s101 + 5.762525z158z101z3 <= 3.98
s158 - s28 + 6.014654z158z28z3 <= 3.98
s158 - s178 + 5.956193z158z178z3 <= 3.98
s158 - s173 + 5.943324z158z173z3 <= 3.98
s6 - s112 + 5.608381z6z112z3 <= 4.13
s6 - s101 + 5.596308z6z101z3 <= 4.13
s6 - s28 + 5.862177z6z28z3 <= 4.13
s6 - s178 + 5.882445z6z178z3 <= 4.13
s6 - s173 + 5.750403z6z173z3 <= 4.13
s56 - s112 + 6.239387z56z112z3 <= 4.31
s56 - s101 + 6.043383z56z101z3 <= 4.31
s56 - s28 + 6.227598z56z28z3 <= 4.31
s56 - s178 + 6.366449z56z178z3 <= 4.31
s56 - s173 + 6.066877z56z173z3 <= 4.31
s10 - s65 + 7.726363z10z65z1 <= 6.58
s10 - s65 + 7.726363z10z65z2 <= 6.58
s10 - s19 + 7.820092z10z19z1 <= 6.58
s10 - s19 + 7.820092z10z19z2 <= 6.58
s10 - s103 + 7.881257z10z103z1 <= 6.58
s10 - s28 + 7.966494z10z28z1 <= 6.58
s10 - s129 + 7.940555z10z129z1 <= 6.58
s10 - s129 + 7.940555z10z129z2 <= 6.58
s10 - s88 + 7.966897z10z88z1 <= 6.58
s10 - s88 + 7.966897z10z88z2 <= 6.58
s10 - s178 + 7.868829z10z178z1 <= 6.58
s10 - s76 + 8.053474z10z76z2 <= 6.58
s10 - s173 + 7.973559z10z173z1 <= 6.58
s10 - s132 + 7.985353z10z132z1 <= 6.58
s10 - s132 + 7.985353z10z132z2 <= 6.58
s10 - s115 + 8.001637z10z115z2 <= 6.58
s112 - s65 + 7.630555z112z65z2 <= 6.43
s112 - s19 + 7.736956z112z19z2 <= 6.43
s112 - s28 + 7.886070z112z28z3 <= 6.43
s112 - s129 + 7.857603z112z129z2 <= 6.43
s112 - s88 + 7.884557z112z88z2 <= 6.43
s112 - s178 + 7.777819z112z178z3 <= 6.43
s112 - s76 + 7.972627z112z76z2 <= 6.43
s112 - s173 + 7.888791z112z173z3 <= 6.43
s112 - s132 + 7.901499z112z132z2 <= 6.43
s112 - s115 + 7.918307z112z115z2 <= 6.43
s165 - s38 + 7.920000z165z38z2 <= 6.78
s165 - s101 + 7.889950z165z101z2 <= 6.78
s165 - s19 + 8.064254z165z19z2 <= 6.78
s165 - s129 + 8.061267z165z129z2 <= 6.78
s165 - s88 + 8.180056z165z88z2 <= 6.78
s165 - s76 + 8.236314z165z76z2 <= 6.78
s165 - s132 + 8.093830z165z132z2 <= 6.78
s165 - s115 + 8.113400z165z115z2 <= 6.78
s38 - s129 + 8.362516z38z129z2 <= 7.22
s38 - s88 + 8.497448z38z88z2 <= 7.22
s38 - s76 + 8.540555z38z76z2 <= 7.22
s38 - s132 + 8.399506z38z132z2 <= 7.22
s38 - s115 + 8.418214z38z115z2 <= 7.22
s101 - s28 + 8.496166z101z28z3 <= 7.23
s101 - s129 + 8.403334z101z129z2 <= 7.23
s101 - s88 + 8.550070z101z88z2 <= 7.23
s101 - s178 + 8.557957z101z178z3 <= 7.23
s101 - s76 + 8.590555z101z76z2 <= 7.23
s101 - s173 + 8.415951z101z173z3 <= 7.23
s101 - s132 + 8.433961z101z132z2 <= 7.23
s101 - s115 + 8.453607z101z115z2 <= 7.23
s65 - s28 + 8.561478z65z28z1 <= 7.26
s65 - s129 + 8.583660z65z129z1 <= 7.26
s65 - s129 + 8.583660z65z129z2 <= 7.26
s65 - s88 + 8.534064z65z88z1 <= 7.26
s65 - s88 + 8.534064z65z88z2 <= 7.26
s65 - s178 + 8.408024z65z178z1 <= 7.26
s65 - s76 + 8.632977z65z76z2 <= 7.26
s65 - s173 + 8.627151z65z173z1 <= 7.26
s65 - s132 + 8.631723z65z132z1 <= 7.26
s65 - s132 + 8.631723z65z132z2 <= 7.26
s65 - s115 + 8.642855z65z115z2 <= 7.26
s19 - s28 + 8.540750z19z28z1 <= 7.37
s19 - s129 + 8.585200z19z129z1 <= 7.37
s19 - s129 + 8.585200z19z129z2 <= 7.37
s19 - s88 + 8.518024z19z88z1 <= 7.37
s19 - s88 + 8.518024z19z88z2 <= 7.37
s19 - s178 + 8.462856z19z178z1 <= 7.37
s19 - s76 + 8.612670z19z76z2 <= 7.37
s19 - s173 + 8.631958z19z173z1 <= 7.37
s19 - s132 + 8.631449z19z132z1 <= 7.37
s19 - s132 + 8.631449z19z132z2 <= 7.37
s19 - s115 + 8.638741z19z115z2 <= 7.37
s103 - s28 + 8.553494z103z28z1 <= 7.45
s103 - s129 + 8.528031z103z129z1 <= 7.45
s103 - s88 + 8.610277z103z88z1 <= 7.45
s103 - s178 + 8.670000z103z178z1 <= 7.45
s103 - s173 + 8.574543z103z173z1 <= 7.45
s103 - s132 + 8.575255z103z132z1 <= 7.45
s28 - s173 + 8.901107z28z173z1 <= 7.74
s28 - s173 + 8.901107z28z173z3 <= 7.74
s28 - s132 + 8.887573z28z132z1 <= 7.74
s129 - s76 + 8.975372z129z76z2 <= 7.77
s129 - s173 + 8.817141z129z173z1 <= 7.77
s129 - s132 + 8.818074z129z132z1 <= 7.77
s129 - s132 + 8.818074z129z132z2 <= 7.77
s129 - s115 + 8.831464z129z115z2 <= 7.77
s88 - s76 + 8.914137z88z76z2 <= 7.81
s88 - s132 + 9.044474z88z132z1 <= 7.81
s88 - s132 + 9.044474z88z132z2 <= 7.81
s88 - s115 + 9.040169z88z115z2 <= 7.81
s173 - s132 + 9.051082z173z132z1 <= 8.03
s132 - s115 + 9.080000z132z115z2 <= 8.06

x86x10x1 - 1z86z10z1 <= 0
x86x10x2 - 1z86z10z2 <= 0
x86x165x2 - 2z86z165z2 <= 0
x86x38x2 - 2z86z38z2 <= 0
x86x101x2 - 1z86z101z2 <= 0
x86x65x1 - 1z86z65z1 <= 0
x86x65x2 - 1z86z65z2 <= 0
x86x19x1 - 1z86z19z1 <= 0
x86x19x2 - 1z86z19z2 <= 0
x86x103x1 - 2z86z103z1 <= 0
x86x28x1 - 1z86z28z1 <= 0
x86x129x1 - 1z86z129z1 <= 0
x86x129x2 - 1z86z129z2 <= 0
x86x88x1 - 1z86z88z1 <= 0
x86x88x2 - 1z86z88z2 <= 0
x86x178x1 - 1z86z178z1 <= 0
x86x76x2 - 2z86z76z2 <= 0
x86x173x1 - 1z86z173z1 <= 0
x86x132x1 - 1z86z132z1 <= 0
x86x132x2 - 1z86z132z2 <= 0
x86x115x2 - 2z86z115z2 <= 0
x107x165x2 - 2z107z165z2 <= 0
x107x38x2 - 2z107z38z2 <= 0
x107x101x2 - 1z107z101z2 <= 0
x107x101x3 - 1z107z101z3 <= 0
x107x65x2 - 1z107z65z2 <= 0
x107x19x2 - 1z107z19z2 <= 0
x107x28x3 - 1z107z28z3 <= 0
x107x129x2 - 1z107z129z2 <= 0
x107x88x2 - 1z107z88z2 <= 0
x107x178x3 - 1z107z178z3 <= 0
x107x76x2 - 2z107z76z2 <= 0
x107x173x3 - 1z107z173z3 <= 0
x107x132x2 - 1z107z132z2 <= 0
x107x115x2 - 2z107z115z2 <= 0
x126x38x2 - 2z126z38z2 <= 0
x126x101x2 - 1z126z101z2 <= 0
x126x65x1 - 1z126z65z1 <= 0
x126x65x2 - 1z126z65z2 <= 0
x126x19x1 - 1z126z19z1 <= 0
x126x19x2 - 1z126z19z2 <= 0
x126x103x1 - 2z126z103z1 <= 0
x126x28x1 - 1z126z28z1 <= 0
x126x129x1 - 1z126z129z1 <= 0
x126x129x2 - 1z126z129z2 <= 0
x126x88x1 - 1z126z88z1 <= 0
x126x88x2 - 1z126z88z2 <= 0
x126x178x1 - 1z126z178z1 <= 0
x126x76x2 - 2z126z76z2 <= 0
x126x173x1 - 1z126z173z1 <= 0
x126x132x1 - 1z126z132z1 <= 0
x126x132x2 - 1z126z132z2 <= 0
x126x115x2 - 2z126z115z2 <= 0
x41x10x1 - 1z41z10z1 <= 0
x41x65x1 - 1z41z65z1 <= 0
x41x19x1 - 1z41z19z1 <= 0
x41x103x1 - 2z41z103z1 <= 0
x41x28x1 - 1z41z28z1 <= 0
x41x129x1 - 1z41z129z1 <= 0
x41x88x1 - 1z41z88z1 <= 0
x41x178x1 - 1z41z178z1 <= 0
x41x173x1 - 1z41z173z1 <= 0
x41x132x1 - 1z41z132z1 <= 0
x9x10x1 - 1z9z10z1 <= 0
x9x112x3 - 1z9z112z3 <= 0
x9x101x3 - 1z9z101z3 <= 0
x9x65x1 - 1z9z65z1 <= 0
x9x19x1 - 1z9z19z1 <= 0
x9x103x1 - 2z9z103z1 <= 0
x9x28x1 - 1z9z28z1 <= 0
x9x28x3 - 1z9z28z3 <= 0
x9x129x1 - 1z9z129z1 <= 0
x9x88x1 - 1z9z88z1 <= 0
x9x178x1 - 1z9z178z1 <= 0
x9x178x3 - 1z9z178z3 <= 0
x9x173x1 - 1z9z173z1 <= 0
x9x173x3 - 1z9z173z3 <= 0
x9x132x1 - 1z9z132z1 <= 0
x149x165x2 - 2z149z165z2 <= 0
x149x38x2 - 2z149z38z2 <= 0
x149x101x2 - 1z149z101z2 <= 0
x149x101x3 - 1z149z101z3 <= 0
x149x65x2 - 1z149z65z2 <= 0
x149x19x2 - 1z149z19z2 <= 0
x149x28x3 - 1z149z28z3 <= 0
x149x129x2 - 1z149z129z2 <= 0
x149x88x2 - 1z149z88z2 <= 0
x149x178x3 - 1z149z178z3 <= 0
x149x76x2 - 2z149z76z2 <= 0
x149x173x3 - 1z149z173z3 <= 0
x149x132x2 - 1z149z132z2 <= 0
x149x115x2 - 2z149z115z2 <= 0
x97x165x2 - 2z97z165z2 <= 0
x97x38x2 - 2z97z38z2 <= 0
x97x101x2 - 1z97z101z2 <= 0
x97x65x1 - 1z97z65z1 <= 0
x97x65x2 - 1z97z65z2 <= 0
x97x19x1 - 1z97z19z1 <= 0
x97x19x2 - 1z97z19z2 <= 0
x97x103x1 - 2z97z103z1 <= 0
x97x28x1 - 1z97z28z1 <= 0
x97x129x1 - 1z97z129z1 <= 0
x97x129x2 - 1z97z129z2 <= 0
x97x88x1 - 1z97z88z1 <= 0
x97x88x2 - 1z97z88z2 <= 0
x97x178x1 - 1z97z178z1 <= 0
x97x76x2 - 2z97z76z2 <= 0
x97x173x1 - 1z97z173z1 <= 0
x97x132x1 - 1z97z132z1 <= 0
x97x132x2 - 1z97z132z2 <= 0
x97x115x2 - 2z97z115z2 <= 0
x1x38x2 - 2z1z38z2 <= 0
x1x101x2 - 1z1z101z2 <= 0
x1x19x1 - 1z1z19z1 <= 0
x1x19x2 - 1z1z19z2 <= 0
x1x103x1 - 2z1z103z1 <= 0
x1x28x1 - 1z1z28z1 <= 0
x1x129x1 - 1z1z129z1 <= 0
x1x129x2 - 1z1z129z2 <= 0
x1x88x1 - 1z1z88z1 <= 0
x1x88x2 - 1z1z88z2 <= 0
x1x178x1 - 1z1z178z1 <= 0
x1x76x2 - 2z1z76z2 <= 0
x1x173x1 - 1z1z173z1 <= 0
x1x132x1 - 1z1z132z1 <= 0
x1x132x2 - 1z1z132z2 <= 0
x1x115x2 - 2z1z115z2 <= 0
x112x165x2 - 2z112z165z2 <= 0
x112x38x2 - 2z112z38z2 <= 0
x112x101x2 - 1z112z101z2 <= 0
x112x101x3 - 1z112z101z3 <= 0
x112x65x2 - 1z112z65z2 <= 0
x112x19x2 - 1z112z19z2 <= 0
x112x28x3 - 1z112z28z3 <= 0
x112x129x2 - 1z112z129z2 <= 0
x112x88x2 - 1z112z88z2 <= 0
x112x178x3 - 1z112z178z3 <= 0
x112x76x2 - 2z112z76z2 <= 0
x112x173x3 - 1z112z173z3 <= 0
x112x132x2 - 1z112z132z2 <= 0
x112x115x2 - 2z112z115z2 <= 0
x10x38x2 - 2z10z38z2 <= 0
x10x101x2 - 1z10z101z2 <= 0
x10x65x1 - 1z10z65z1 <= 0
x10x65x2 - 1z10z65z2 <= 0
x10x19x1 - 1z10z19z1 <= 0
x10x19x2 - 1z10z19z2 <= 0
x10x103x1 - 2z10z103z1 <= 0
x10x28x1 - 1z10z28z1 <= 0
x10x129x1 - 1z10z129z1 <= 0
x10x129x2 - 1z10z129z2 <= 0
x10x88x1 - 1z10z88z1 <= 0
x10x88x2 - 1z10z88z2 <= 0
x10x178x1 - 1z10z178z1 <= 0
x10x76x2 - 2z10z76z2 <= 0
x10x173x1 - 1z10z173z1 <= 0
x10x132x1 - 1z10z132z1 <= 0
x10x132x2 - 1z10z132z2 <= 0
x10x115x2 - 2z10z115z2 <= 0
x158x112x3 - 1z158z112z3 <= 0
x158x101x3 - 1z158z101z3 <= 0
x158x28x3 - 1z158z28z3 <= 0
x158x178x3 - 1z158z178z3 <= 0
x158x173x3 - 1z158z173z3 <= 0
x6x112x3 - 1z6z112z3 <= 0
x6x101x3 - 1z6z101z3 <= 0
x6x28x3 - 1z6z28z3 <= 0
x6x178x3 - 1z6z178z3 <= 0
x6x173x3 - 1z6z173z3 <= 0
x56x112x3 - 1z56z112z3 <= 0
x56x101x3 - 1z56z101z3 <= 0
x56x28x3 - 1z56z28z3 <= 0
x56x178x3 - 1z56z178z3 <= 0
x56x173x3 - 1z56z173z3 <= 0
x10x65x1 - 1z10z65z1 <= 0
x10x65x2 - 1z10z65z2 <= 0
x10x19x1 - 1z10z19z1 <= 0
x10x19x2 - 1z10z19z2 <= 0
x10x103x1 - 2z10z103z1 <= 0
x10x28x1 - 1z10z28z1 <= 0
x10x129x1 - 1z10z129z1 <= 0
x10x129x2 - 1z10z129z2 <= 0
x10x88x1 - 1z10z88z1 <= 0
x10x88x2 - 1z10z88z2 <= 0
x10x178x1 - 1z10z178z1 <= 0
x10x76x2 - 2z10z76z2 <= 0
x10x173x1 - 1z10z173z1 <= 0
x10x132x1 - 1z10z132z1 <= 0
x10x132x2 - 1z10z132z2 <= 0
x10x115x2 - 2z10z115z2 <= 0
x10x0x1 <= 1
x10x0x2 <= 1
x112x65x2 - 1z112z65z2 <= 0
x112x19x2 - 1z112z19z2 <= 0
x112x28x3 - 1z112z28z3 <= 0
x112x129x2 - 1z112z129z2 <= 0
x112x88x2 - 1z112z88z2 <= 0
x112x178x3 - 1z112z178z3 <= 0
x112x76x2 - 2z112z76z2 <= 0
x112x173x3 - 1z112z173z3 <= 0
x112x132x2 - 1z112z132z2 <= 0
x112x115x2 - 2z112z115z2 <= 0
x112x0x2 <= 1
x112x0x3 <= 1
x165x38x2 - 2z165z38z2 <= 0
x165x101x2 - 1z165z101z2 <= 0
x165x19x2 - 1z165z19z2 <= 0
x165x129x2 - 1z165z129z2 <= 0
x165x88x2 - 1z165z88z2 <= 0
x165x76x2 - 2z165z76z2 <= 0
x165x132x2 - 1z165z132z2 <= 0
x165x115x2 - 2z165z115z2 <= 0
x165x0x2 <= 2
x38x129x2 - 1z38z129z2 <= 0
x38x88x2 - 1z38z88z2 <= 0
x38x76x2 - 2z38z76z2 <= 0
x38x132x2 - 1z38z132z2 <= 0
x38x115x2 - 2z38z115z2 <= 0
x38x0x2 <= 2
x101x28x3 - 1z101z28z3 <= 0
x101x129x2 - 1z101z129z2 <= 0
x101x88x2 - 1z101z88z2 <= 0
x101x178x3 - 1z101z178z3 <= 0
x101x76x2 - 2z101z76z2 <= 0
x101x173x3 - 1z101z173z3 <= 0
x101x132x2 - 1z101z132z2 <= 0
x101x115x2 - 2z101z115z2 <= 0
x101x0x2 <= 1
x101x0x3 <= 1
x65x28x1 - 1z65z28z1 <= 0
x65x129x1 - 1z65z129z1 <= 0
x65x129x2 - 1z65z129z2 <= 0
x65x88x1 - 1z65z88z1 <= 0
x65x88x2 - 1z65z88z2 <= 0
x65x178x1 - 1z65z178z1 <= 0
x65x76x2 - 2z65z76z2 <= 0
x65x173x1 - 1z65z173z1 <= 0
x65x132x1 - 1z65z132z1 <= 0
x65x132x2 - 1z65z132z2 <= 0
x65x115x2 - 2z65z115z2 <= 0
x65x0x1 <= 1
x65x0x2 <= 1
x19x28x1 - 1z19z28z1 <= 0
x19x129x1 - 1z19z129z1 <= 0
x19x129x2 - 1z19z129z2 <= 0
x19x88x1 - 1z19z88z1 <= 0
x19x88x2 - 1z19z88z2 <= 0
x19x178x1 - 1z19z178z1 <= 0
x19x76x2 - 2z19z76z2 <= 0
x19x173x1 - 1z19z173z1 <= 0
x19x132x1 - 1z19z132z1 <= 0
x19x132x2 - 1z19z132z2 <= 0
x19x115x2 - 2z19z115z2 <= 0
x19x0x1 <= 1
x19x0x2 <= 1
x103x28x1 - 1z103z28z1 <= 0
x103x129x1 - 1z103z129z1 <= 0
x103x88x1 - 1z103z88z1 <= 0
x103x178x1 - 1z103z178z1 <= 0
x103x173x1 - 1z103z173z1 <= 0
x103x132x1 - 1z103z132z1 <= 0
x103x0x1 <= 2
x28x173x1 - 1z28z173z1 <= 0
x28x173x3 - 1z28z173z3 <= 0
x28x132x1 - 1z28z132z1 <= 0
x28x0x1 <= 1
x28x0x3 <= 1
x129x76x2 - 2z129z76z2 <= 0
x129x173x1 - 1z129z173z1 <= 0
x129x132x1 - 1z129z132z1 <= 0
x129x132x2 - 1z129z132z2 <= 0
x129x115x2 - 2z129z115z2 <= 0
x129x0x1 <= 1
x129x0x2 <= 1
x88x76x2 - 2z88z76z2 <= 0
x88x132x1 - 1z88z132z1 <= 0
x88x132x2 - 1z88z132z2 <= 0
x88x115x2 - 2z88z115z2 <= 0
x88x0x1 <= 1
x88x0x2 <= 1
x178x0x1 <= 1
x178x0x3 <= 1
x76x0x2 <= 2
x173x132x1 - 1z173z132z1 <= 0
x173x0x1 <= 1
x173x0x3 <= 1
x132x115x2 - 2z132z115z2 <= 0
x132x0x1 <= 1
x132x0x2 <= 1
x115x0x2 <= 2

Bounds
s86 = 4.944998
s107 = 5.321322
s126 = 5.648602
s41 = 5.000252
s9 = 5.145480
s149 = 5.453227
s97 = 5.343131
s1 = 5.748166
s112 = 5.540808
s10 = 5.652996
s158 = 3.975830
s6 = 4.131120
s56 = 4.306030
6.000000 <= s10 <= 6.580000
6.000000 <= s112 <= 6.430000
6.000000 <= s165 <= 6.780000
6.220000 <= s38 <= 7.220000
6.230000 <= s101 <= 7.230000
6.260000 <= s65 <= 7.260000
6.370000 <= s19 <= 7.370000
6.450000 <= s103 <= 7.450000
6.740000 <= s28 <= 7.740000
6.770000 <= s129 <= 7.770000
6.810000 <= s88 <= 7.810000
6.820000 <= s178 <= 7.820000
7.020000 <= s76 <= 8.020000
7.030000 <= s173 <= 8.030000
7.060000 <= s132 <= 8.060000
7.120000 <= s115 <= 8.120000

General
x86x10x1 x86x10x2 x86x165x2 x86x38x2 x86x101x2 x86x65x1 x86x65x2 x86x19x1 x86x19x2 x86x103x1 x86x28x1 x86x129x1 x86x129x2 x86x88x1 x86x88x2 x86x178x1 x86x76x2 x86x173x1 x86x132x1 x86x132x2 x86x115x2 
x107x165x2 x107x38x2 x107x101x2 x107x101x3 x107x65x2 x107x19x2 x107x28x3 x107x129x2 x107x88x2 x107x178x3 x107x76x2 x107x173x3 x107x132x2 x107x115x2 
x126x38x2 x126x101x2 x126x65x1 x126x65x2 x126x19x1 x126x19x2 x126x103x1 x126x28x1 x126x129x1 x126x129x2 x126x88x1 x126x88x2 x126x178x1 x126x76x2 x126x173x1 x126x132x1 x126x132x2 x126x115x2 
x41x10x1 x41x65x1 x41x19x1 x41x103x1 x41x28x1 x41x129x1 x41x88x1 x41x178x1 x41x173x1 x41x132x1 
x9x10x1 x9x112x3 x9x101x3 x9x65x1 x9x19x1 x9x103x1 x9x28x1 x9x28x3 x9x129x1 x9x88x1 x9x178x1 x9x178x3 x9x173x1 x9x173x3 x9x132x1 
x149x165x2 x149x38x2 x149x101x2 x149x101x3 x149x65x2 x149x19x2 x149x28x3 x149x129x2 x149x88x2 x149x178x3 x149x76x2 x149x173x3 x149x132x2 x149x115x2 
x97x165x2 x97x38x2 x97x101x2 x97x65x1 x97x65x2 x97x19x1 x97x19x2 x97x103x1 x97x28x1 x97x129x1 x97x129x2 x97x88x1 x97x88x2 x97x178x1 x97x76x2 x97x173x1 x97x132x1 x97x132x2 x97x115x2 
x1x38x2 x1x101x2 x1x19x1 x1x19x2 x1x103x1 x1x28x1 x1x129x1 x1x129x2 x1x88x1 x1x88x2 x1x178x1 x1x76x2 x1x173x1 x1x132x1 x1x132x2 x1x115x2 
x112x165x2 x112x38x2 x112x101x2 x112x101x3 x112x65x2 x112x19x2 x112x28x3 x112x129x2 x112x88x2 x112x178x3 x112x76x2 x112x173x3 x112x132x2 x112x115x2 
x10x38x2 x10x101x2 x10x65x1 x10x65x2 x10x19x1 x10x19x2 x10x103x1 x10x28x1 x10x129x1 x10x129x2 x10x88x1 x10x88x2 x10x178x1 x10x76x2 x10x173x1 x10x132x1 x10x132x2 x10x115x2 
x158x112x3 x158x101x3 x158x28x3 x158x178x3 x158x173x3 
x6x112x3 x6x101x3 x6x28x3 x6x178x3 x6x173x3 
x56x112x3 x56x101x3 x56x28x3 x56x178x3 x56x173x3 
x10x65x1 x10x65x2 x10x19x1 x10x19x2 x10x103x1 x10x28x1 x10x129x1 x10x129x2 x10x88x1 x10x88x2 x10x178x1 x10x76x2 x10x173x1 x10x132x1 x10x132x2 x10x115x2 x10x0x1 x10x0x2 
x112x65x2 x112x19x2 x112x28x3 x112x129x2 x112x88x2 x112x178x3 x112x76x2 x112x173x3 x112x132x2 x112x115x2 x112x0x2 x112x0x3 
x165x38x2 x165x101x2 x165x19x2 x165x129x2 x165x88x2 x165x76x2 x165x132x2 x165x115x2 x165x0x2 
x38x129x2 x38x88x2 x38x76x2 x38x132x2 x38x115x2 x38x0x2 
x101x28x3 x101x129x2 x101x88x2 x101x178x3 x101x76x2 x101x173x3 x101x132x2 x101x115x2 x101x0x2 x101x0x3 
x65x28x1 x65x129x1 x65x129x2 x65x88x1 x65x88x2 x65x178x1 x65x76x2 x65x173x1 x65x132x1 x65x132x2 x65x115x2 x65x0x1 x65x0x2 
x19x28x1 x19x129x1 x19x129x2 x19x88x1 x19x88x2 x19x178x1 x19x76x2 x19x173x1 x19x132x1 x19x132x2 x19x115x2 x19x0x1 x19x0x2 
x103x28x1 x103x129x1 x103x88x1 x103x178x1 x103x173x1 x103x132x1 x103x0x1 
x28x173x1 x28x173x3 x28x132x1 x28x0x1 x28x0x3 
x129x76x2 x129x173x1 x129x132x1 x129x132x2 x129x115x2 x129x0x1 x129x0x2 
x88x76x2 x88x132x1 x88x132x2 x88x115x2 x88x0x1 x88x0x2 
x178x0x1 x178x0x3 
x76x0x2 
x173x132x1 x173x0x1 x173x0x3 
x132x115x2 x132x0x1 x132x0x2 
x115x0x2 

Binaries
y10 y112 y165 y38 y101 y65 y19 y103 y28 y129 y88 y178 y76 y173 y132 y115 
z86z10z1 z86z10z2 z86z165z2 z86z38z2 z86z101z2 z86z65z1 z86z65z2 z86z19z1 z86z19z2 z86z103z1 z86z28z1 z86z129z1 z86z129z2 z86z88z1 z86z88z2 z86z178z1 z86z76z2 z86z173z1 z86z132z1 z86z132z2 z86z115z2 
z107z165z2 z107z38z2 z107z101z2 z107z101z3 z107z65z2 z107z19z2 z107z28z3 z107z129z2 z107z88z2 z107z178z3 z107z76z2 z107z173z3 z107z132z2 z107z115z2 
z126z38z2 z126z101z2 z126z65z1 z126z65z2 z126z19z1 z126z19z2 z126z103z1 z126z28z1 z126z129z1 z126z129z2 z126z88z1 z126z88z2 z126z178z1 z126z76z2 z126z173z1 z126z132z1 z126z132z2 z126z115z2 
z41z10z1 z41z65z1 z41z19z1 z41z103z1 z41z28z1 z41z129z1 z41z88z1 z41z178z1 z41z173z1 z41z132z1 
z9z10z1 z9z112z3 z9z101z3 z9z65z1 z9z19z1 z9z103z1 z9z28z1 z9z28z3 z9z129z1 z9z88z1 z9z178z1 z9z178z3 z9z173z1 z9z173z3 z9z132z1 
z149z165z2 z149z38z2 z149z101z2 z149z101z3 z149z65z2 z149z19z2 z149z28z3 z149z129z2 z149z88z2 z149z178z3 z149z76z2 z149z173z3 z149z132z2 z149z115z2 
z97z165z2 z97z38z2 z97z101z2 z97z65z1 z97z65z2 z97z19z1 z97z19z2 z97z103z1 z97z28z1 z97z129z1 z97z129z2 z97z88z1 z97z88z2 z97z178z1 z97z76z2 z97z173z1 z97z132z1 z97z132z2 z97z115z2 
z1z38z2 z1z101z2 z1z19z1 z1z19z2 z1z103z1 z1z28z1 z1z129z1 z1z129z2 z1z88z1 z1z88z2 z1z178z1 z1z76z2 z1z173z1 z1z132z1 z1z132z2 z1z115z2 
z112z165z2 z112z38z2 z112z101z2 z112z101z3 z112z65z2 z112z19z2 z112z28z3 z112z129z2 z112z88z2 z112z178z3 z112z76z2 z112z173z3 z112z132z2 z112z115z2 
z10z38z2 z10z101z2 z10z65z1 z10z65z2 z10z19z1 z10z19z2 z10z103z1 z10z28z1 z10z129z1 z10z129z2 z10z88z1 z10z88z2 z10z178z1 z10z76z2 z10z173z1 z10z132z1 z10z132z2 z10z115z2 
z158z112z3 z158z101z3 z158z28z3 z158z178z3 z158z173z3 
z6z112z3 z6z101z3 z6z28z3 z6z178z3 z6z173z3 
z56z112z3 z56z101z3 z56z28z3 z56z178z3 z56z173z3 
z10z65z1 z10z65z2 z10z19z1 z10z19z2 z10z103z1 z10z28z1 z10z129z1 z10z129z2 z10z88z1 z10z88z2 z10z178z1 z10z76z2 z10z173z1 z10z132z1 z10z132z2 z10z115z2 
z112z65z2 z112z19z2 z112z28z3 z112z129z2 z112z88z2 z112z178z3 z112z76z2 z112z173z3 z112z132z2 z112z115z2 
z165z38z2 z165z101z2 z165z19z2 z165z129z2 z165z88z2 z165z76z2 z165z132z2 z165z115z2 
z38z129z2 z38z88z2 z38z76z2 z38z132z2 z38z115z2 
z101z28z3 z101z129z2 z101z88z2 z101z178z3 z101z76z2 z101z173z3 z101z132z2 z101z115z2 
z65z28z1 z65z129z1 z65z129z2 z65z88z1 z65z88z2 z65z178z1 z65z76z2 z65z173z1 z65z132z1 z65z132z2 z65z115z2 
z19z28z1 z19z129z1 z19z129z2 z19z88z1 z19z88z2 z19z178z1 z19z76z2 z19z173z1 z19z132z1 z19z132z2 z19z115z2 
z103z28z1 z103z129z1 z103z88z1 z103z178z1 z103z173z1 z103z132z1 
z28z173z1 z28z173z3 z28z132z1 
z129z76z2 z129z173z1 z129z132z1 z129z132z2 z129z115z2 
z88z76z2 z88z132z1 z88z132z2 z88z115z2 


z173z132z1 
z132z115z2 


End